% demand
num_movements = 32;
loading_factor = [1300, 1650, 1750, 1250, 1050, 1600, 1250, 1600, 900, 1650, 1000, 1850, 1500, 1000, 800, 1550, 800, 1250, 1150, 2000, 1550, 1950, 1250, 1500, 900, 850, 1050, 1950, 1800, 1250, 900, 1550];
pickup_time = [0, 0, 0, 0, 0, 2, 2, 2, 2, 3, 4, 5, 5, 5, 5, 5, 6, 6, 7, 7, 8, 8, 8, 9, 10, 10, 11, 11, 11, 11, 12, 12];
delivery_time = [2, 3, 2, 1, 2, 4, 4, 4, 4, 4, 5, 6, 7, 7, 7, 6, 7, 8, 8, 10, 10, 10, 9, 11, 12, 11, 12, 13, 12, 13, 13, 13];

% transporter definition
total_capacity = 7000;
num_decks = 3;
capacity = [3000, 1000, 3000];

% ways out of decks
num_ways_out = 1;
paths_out = array3d(decks, ways_out, decks, [
% ways out of deck d1
2, 3, 0, 

% ways out of deck d2
3, 0, 0, 

% ways out of deck d3
0, 0, 0,	

]);

